benchmarks/VRPTW/TSPTW/solution/n80w40.002.txt.solution
1 42 50 75 53 79 67 44 20 37 65 27 66 4 21 13 24 72 64 18 10 26 62 28 33 73 25 45 80 11 63 36 54 15 48 46 12 6 76 51 32 49 5 9 52 31 19 56 23 8 60 43 61 57 70 22 30 34 7 59 74 71 35 55 77 39 38 16 3 58 29 41 17 69 78 40 47 2 14 81 68 
618
